&CONTROL
   calculation      = 'scf'
   verbosity        = 'low'
   tstress          = .true.
   tprnfor          = .true.
   outdir           = './tmp'
   prefix           = 'BeO_band'
   disk_io          = 'low'
   pseudo_dir       = './'
/
&SYSTEM
   ibrav            = 0
   nat              = 4
   ntyp             = 2
   ecutwfc          = 125
   occupations      = 'smearing'
   degauss          = 0.01
   smearing         = 'gauss'
/
&ELECTRONS
   electron_maxstep = 100
   conv_thr         = 1e-10
   mixing_beta      = 0.2
   diagonalization  = 'david'
   diago_full_acc   = .true.
   startingpot      = 'atomic'
   startingwfc      = 'atomic+random'
/
&IONS
/
&CELL
/
&FCP
/
&RISM
/
ATOMIC_SPECIES
Be 9.0121831 Be.upf
O 15.999 O.upf

K_POINTS automatic
10 10 5  0 0 0

CELL_PARAMETERS angstrom
2.71121106530000 0.00000000000000 0.00000000000000
-1.35560553270000 2.34797765760000 0.00000000000000
0.00000000000000 0.00000000000000 4.40132166560000

ATOMIC_POSITIONS angstrom
Be 0.0000000000 1.5653184384 0.0002391340  
Be 1.3556055327 0.7826592192 2.2008999668  
O 0.0000000000 1.5653184384 1.6634604164  
O 1.3556055327 0.7826592192 3.8641212492  

