Au
 1.0000000000000000
    11.1996903876299392    0.0000000000000000    0.0000000000000000
    -5.5998451938635911    9.6733918021296024    0.0000000000000000
     0.0000000000000000    0.0000000000000000   19.7019004821999992
 Au 
  48
Cartesian
  0.0470835470091336 -0.0264877584496870  9.8701573592274308
  1.4000785456915823  0.8058436893474420  7.3505119379618336
 -0.0471023651842851  1.6382414651749757  4.8333688918736941
  2.8467480520312494 -0.0266720269928615  9.8706637165833833
  4.2000871671962834  0.8059742485701733  7.3507974185174119
  2.7527147974681938  1.6379660797480626  4.8330596330747984
  5.6471378635787968 -0.0266185941019166  9.8697184952825996
  6.9995163375931000  0.8053042893326138  7.3514371087523465
  5.5525440172107885  1.6383001460769679  4.8331459410251449
  8.4472954059125485 -0.0264200556269582  9.8696684384119227
  9.7998545296158692  0.8058447092157592  7.3503671740617138
  8.3528093682382014  1.6388483462474406  4.8329857248446197
 -1.3523600794809405  2.3917948760466214  9.8692175630216123
 -0.0003440656090466  3.2245222507069431  7.3497848955211769
 -1.4467156334384688  4.0575601739416829  4.8332892088710091
  1.4469806689830726  2.3913277960745289  9.8691797689319269
  2.8001498290604712  3.2246502085492774  7.3500848380926085
  1.3530175776864386  4.0573493057256469  4.8339641672779727
  4.2462646757345981  2.3912440902454506  9.8689482052042443
  5.6001983262684565  3.2245110810498674  7.3506246227997059
  4.1523108463480822  4.0574119011796927  4.8338605040193618
  7.0470916476024472  2.3918434167139702  9.8685040719685162
  8.3995880274193730  3.2243562524772500  7.3505508968828179
  6.9525561467685497  4.0574359305672321  4.8333827479210676
 -2.7523301042071719  4.8101346788872066  9.8693494480007846
 -1.4005347637071031  5.6429342418049178  7.3511614224857400
 -2.8469252862764347  6.4758473680750956  4.8312307121525722
  0.0477242623899462  4.8098593406168790  9.8691327488606824
  1.3996107657178465  5.6431418137045721  7.3507838258379410
 -0.0465775003707900  6.4763120452875107  4.8317360545038177
  2.8468438735822303  4.8096255528208411  9.8687167483002565
  4.2003150435061185  5.6431218299766481  7.3514282486879505
  2.7527009570881269  6.4762914778866829  4.8325214231654456
  5.6463751847219799  4.8099457079821972  9.8687384577009354
  7.0002909098073376  5.6435200256753664  7.3512088107127518
  5.5520462568083220  6.4761248167275562  4.8319986914219744
 -4.1531217019725668  7.2284599540511145  9.8702744403452609
 -2.8000621213694852  8.0614462272491849  7.3517132824792375
 -4.2472388504996523  8.8934397668955558  4.8310557626761792
 -1.3524161956809275  7.2285412306996690  9.8703445153283038
 -0.0006020606077847  8.0609187865413290  7.3519352452564553
 -1.4467638993871899  8.8936154144102950  4.8307784678120846
  1.4474500164974466  7.2283038330297176  9.8693701043752675
  2.7996443431511073  8.0610878868084637  7.3517089432349474
  1.3530905398643758  8.8940477547003933  4.8314270230175627
  4.2466238773091138  7.2284212085345017  9.8691545081825129
  5.6003213033650772  8.0615656542866159  7.3518872182954373
  4.1526248006897122  8.8937823211082723  4.8319230023515614
