Au Pd
 1.0000000000000000
    11.5399826689644573    0.0000000000000000    0.0000000000000000
     5.7699913344822287    9.9939181505553663    0.0000000000000000
     0.0000000000000000    0.0000000000000000   27.0667672948810178
 Au  Pd 
  64   1
Cartesian
  0.0005374788360372  0.0003103135506676 10.1105455398975401
  2.8844581884050751  0.0003103135506720 10.1105455398975330
  5.7696658957921985  0.0009587464648129 10.1083576883373709
  8.6553124404133808  0.0009587464648139 10.1083576883373709
  1.4424978336205592  2.4978589105375013 10.1105455398975472
  4.3272695392815406  2.4983502333602585 10.1091886674803693
  7.2124891681027856  2.4986811948576038 10.1084814075725262
 10.0977087969240475  2.4983502333602612 10.1091886674803693
  2.8856632466904095  4.9961978638723261 10.1083576883373656
  5.7701659747565426  4.9968582466682916 10.1084814075725173
  8.6548123614490358  4.9968582466682934 10.1084814075725387
 11.5393150895151546  4.9961978638723288 10.1083576883373709
  4.3284865190010064  7.4952410778570711 10.1083576883373727
  7.2124891681027865  7.4956972214736890 10.1091886674803924
 10.0964918172045621  7.4952410778570702 10.1083576883373745
 12.9824805025850125  7.4954386129165247 10.1058504056890648
  1.4424978336205554  0.8328265125462786 12.3631066222814834
  4.3260012371302610  0.8335506077395758 12.3600150607390198
  7.2124891681027856  0.8339279763363648 12.3576211968275782
 10.0989770990753129  0.8335506077395780 12.3600150607390180
  2.8848766202075686  3.3296516642879199 12.3600150607390198
  5.7696766906651753  3.3311243904926444 12.3582838140665281
  8.6553016455404084  3.3311243904926466 12.3582838140665139
 11.5401017159980039  3.3296516642879270 12.3600150607390216
  4.3284473964852426  5.8292348559289211 12.3576211968275729
  7.2124891681027909  5.8301489072089145 12.3582838140665192
 10.0965309397203313  5.8292348559289238 12.3576211968275853
 12.9824805025850178  5.8288214102429174 12.3543022373973663
  5.7713645511800920  8.3291954161666979 12.3600150607390251
  8.6536137850254811  8.3291954161667050 12.3600150607390269
 11.5391476666855173  8.3287472142533225 12.3543022373973628
 14.4258133384845113  8.3287472142533119 12.3543022373973681
 -0.0006930748406945  1.6660531720384009 14.7112569913919824
  2.8856887420818098  1.6660531720383975 14.7112569913919842
  5.7688274753743114  1.6662018841529569 14.7094509852518431
  8.6561508608312607  1.6662018841529567 14.7094509852518360
  1.4424978336205587  4.1681354224173131 14.7040325972908139
  4.3273868971971154  4.1628502016473270 14.7094509852518396
  7.2124891681027865  4.1641325627314014 14.7078052547658658
 10.0975914390084469  4.1628502016473252 14.7094509852518360
  2.8845247619828163  6.6628839776478843 14.7027783049821803
  5.7710485899255879  6.6633456023939255 14.7094509852518343
  8.6539297462799869  6.6633456023939273 14.7094509852518485
 11.5404535742227576  6.6628839776478896 14.7027783049821839
  4.3240269226858876  9.1590902081661234 14.7040325972908157
  7.2124891681027847  9.1602913441174021 14.7112569913919859
 10.1009514135196845  9.1590902081661181 14.7040325972908192
 12.9824805025850125  9.1605478834537895 14.7027783049821785
 -0.0262548317852536 -0.0151582341987476 16.9809169523303929
  2.9112504990263677 -0.0151582341987494 16.9809169523303893
  5.7830031496323429 -0.0001651601724547 16.9586960409913665
  8.6419751865732355 -0.0001651601724553 16.9586960409913310
  1.4424978336205578  2.5287960060363228 16.9809169523303893
  4.3322568722516586  2.5012296713931006 16.9657694062595219
  7.2124891681027865  2.5007323507371106 16.9588610561730206
 10.0927214639539091  2.5012296713931010 16.9657694062594970
  2.8913585419111389  5.0083102178332570 16.9586960409913594
  5.7719423278553093  4.9958326687285508 16.9588610561730206
  8.6530360083502611  4.9958326687285419 16.9588610561730277
 11.5336197942944327  5.0083102178332544 16.9586960409913523
  4.3208445603815830  7.4842526305333950 16.9586960409913594
  7.2124891681027856  7.4899383454079951 16.9657694062595006
 10.1041337758239944  7.4842526305334021 16.9586960409913807
 12.9824805025850125  7.4954386129165238 16.9561602000003404
  1.4424978336205605  0.8328265125462799 18.9851650814099884
