
     Program PWSCF v.7.4.1 starts on 31Aug2026 at 14:24: 6 

     This program is part of the open-source Quantum ESPRESSO suite
     for quantum simulation of materials; please cite
         "P. Giannozzi et al., J. Phys.:Condens. Matter 21 395502 (2009);
         "P. Giannozzi et al., J. Phys.:Condens. Matter 29 465901 (2017);
         "P. Giannozzi et al., J. Chem. Phys. 152 154105 (2020);
          URL http://www.quantum-espresso.org", 
     in publications or presentations arising from this work. More details at
     http://www.quantum-espresso.org/quote

     Parallel version (MPI), running on     8 processors

     MPI processes distributed on     1 nodes
     14541 MiB available memory on the printing compute node when the environment starts

     Reading input from espresso.pwi
Warning: card &IONS ignored
Warning: card / ignored
Warning: card &CELL ignored
Warning: card / ignored
Warning: card &FCP ignored
Warning: card / ignored
Warning: card &RISM ignored
Warning: card / ignored

     Current dimensions of program PWSCF are:
     Max number of different atomic species (ntypx) = 10
     Max number of k-points (npk) =  40000
     Max angular momentum in pseudopotentials (lmaxx) =  4
     Message from routine iosys:
     wrong startingpot: use default (2)

     Atomic positions and unit cell read from directory:
     ./tmp/BeO_Electronic.save/

     Message from routine setup:
     using ibrav=0 with symmetry is DISCOURAGED, use correct ibrav instead

     R & G space division:  proc/nbgrp/npool/nimage =       8
     Subspace diagonalization in iterative solution of the eigenvalue problem:
     a serial algorithm will be used


     Parallelization info
     --------------------
     sticks:   dense  smooth     PW     G-vecs:    dense   smooth      PW
     Min         114     114     31                 4462     4462     695
     Max         115     115     32                 4467     4467     704
     Sum         913     913    253                35711    35711    5599

     Using Slab Decomposition



     bravais-lattice index     =            0
     lattice parameter (alat)  =       5.1234  a.u.
     unit-cell volume          =     189.0763 (a.u.)^3
     number of atoms/cell      =            4
     number of atomic types    =            2
     number of electrons       =        20.00
     number of Kohn-Sham states=           14
     kinetic-energy cutoff     =     125.0000  Ry
     charge density cutoff     =     500.0000  Ry
     Exchange-correlation= PBE
                           (   1   4   3   4   0   0   0)

     celldm(1)=   5.123446  celldm(2)=   0.000000  celldm(3)=   0.000000
     celldm(4)=   0.000000  celldm(5)=   0.000000  celldm(6)=   0.000000

     crystal axes: (cart. coord. in units of alat)
               a(1) = (   1.000000   0.000000   0.000000 )  
               a(2) = (  -0.500000   0.866025   0.000000 )  
               a(3) = (   0.000000   0.000000   1.623378 )  

     reciprocal axes: (cart. coord. in units 2 pi/alat)
               b(1) = (  1.000000  0.577350 -0.000000 )  
               b(2) = (  0.000000  1.154701  0.000000 )  
               b(3) = (  0.000000 -0.000000  0.615999 )  


     PseudoPot. # 1 for Be read from file:
     ./Be.upf
     MD5 check sum: b02a733c23bac4ae802686de49feac74
     Pseudo is Norm-conserving, Zval =  4.0
     Generated using ONCVPSP code by D. R. Hamann
     Using radial grid of 1358 points,  4 beta functions with: 
                l(1) =   0
                l(2) =   0
                l(3) =   1
                l(4) =   1

     PseudoPot. # 2 for O  read from file:
     ./O.upf
     MD5 check sum: 9db02a5ece9d56b81b65a73f8163743d
     Pseudo is Norm-conserving + core correction, Zval =  6.0
     Generated using ONCVPSP code by D. R. Hamann
     Using radial grid of  936 points,  5 beta functions with: 
                l(1) =   0
                l(2) =   0
                l(3) =   1
                l(4) =   1
                l(5) =   2

     atomic species   valence    mass     pseudopotential
     Be                4.00     9.01218     Be( 1.00)
     O                 6.00    15.99900     O ( 1.00)

     12 Sym. Ops. (no inversion) found ( 6 have fractional translation)



   Cartesian axes

     site n.     atom                  positions (alat units)
         1        Be     tau(   1) = (   0.0000000   0.5773503   0.0000882  )
         2        Be     tau(   2) = (   0.5000000   0.2886751   0.8117774  )
         3        O      tau(   3) = (   0.0000000   0.5773503   0.6135488  )
         4        O      tau(   4) = (   0.5000000   0.2886751   1.4252381  )

     number of k points=   264  Gaussian smearing, width (Ry)=  0.0100

     Number of k-points >= 100: set verbosity='high' to print them.

     Dense  grid:    35711 G-vectors     FFT dimensions: (  40,  40,  60)

     Estimated max dynamical RAM per process >      36.59 MB

     Estimated total dynamical RAM >     292.71 MB

     The potential is recalculated from file :
     ./tmp/BeO_Electronic.save/charge-density

     Starting wfcs are   12 randomized atomic wfcs +    2 random wfcs

     Band Structure Calculation
     Davidson diagonalization with overlap

     ethr =  5.00E-13,  avg # of iterations = 39.9

     total cpu time spent up to now is       37.8 secs

     End of band structure calculation

     Number of k-points >= 100: set verbosity='high' to print the bands.

     the Fermi energy is     8.3936 ev
     (compare with:     8.3444 eV, computed in scf)

     Writing all to output data dir ./tmp/BeO_Electronic.save/ :
     XML data file, pseudopotentials, collected wavefunctions

     init_run     :      0.04s CPU      0.04s WALL (       1 calls)
     electrons    :     35.32s CPU     37.37s WALL (       1 calls)

     Called by init_run:
     wfcinit      :      0.00s CPU      0.00s WALL (       1 calls)
     potinit      :      0.01s CPU      0.01s WALL (       1 calls)
     hinit0       :      0.01s CPU      0.01s WALL (       1 calls)

     Called by electrons:
     c_bands      :     35.32s CPU     37.37s WALL (       1 calls)
     v_of_rho     :      0.01s CPU      0.01s WALL (       1 calls)

     Called by c_bands:
     init_us_2    :      0.05s CPU      0.05s WALL (     264 calls)
     cegterg      :     33.91s CPU     35.83s WALL (     638 calls)

     Called by *egterg:
     cdiaghg      :      1.75s CPU      1.85s WALL (   10810 calls)
     h_psi        :     26.16s CPU     27.73s WALL (   11448 calls)
     g_psi        :      0.11s CPU      0.12s WALL (   10546 calls)

     Called by h_psi:
     h_psi:calbec :      3.09s CPU      3.31s WALL (   11448 calls)
     vloc_psi     :     21.22s CPU     22.44s WALL (   11448 calls)
     add_vuspsi   :      1.73s CPU      1.84s WALL (   11448 calls)

     General routines
     calbec       :      3.08s CPU      3.30s WALL (   11448 calls)
     fft          :      0.00s CPU      0.00s WALL (      11 calls)
     fftw         :     19.51s CPU     20.63s WALL (  165644 calls)

     Parallel routines

     PWSCF        :     35.96s CPU     38.24s WALL


   This run was terminated on:  14:24:44  31Aug2026            

=------------------------------------------------------------------------------=
   JOB DONE.
=------------------------------------------------------------------------------=
