
     Program PWSCF v.7.4.1 starts on 21Oct2025 at 15:50:34 

     This program is part of the open-source Quantum ESPRESSO suite
     for quantum simulation of materials; please cite
         "P. Giannozzi et al., J. Phys.:Condens. Matter 21 395502 (2009);
         "P. Giannozzi et al., J. Phys.:Condens. Matter 29 465901 (2017);
         "P. Giannozzi et al., J. Chem. Phys. 152 154105 (2020);
          URL http://www.quantum-espresso.org", 
     in publications or presentations arising from this work. More details at
     http://www.quantum-espresso.org/quote

     Parallel version (MPI), running on     4 processors

     MPI processes distributed on     1 nodes
     13968 MiB available memory on the printing compute node when the environment starts

     Reading input from espresso.pwi
Warning: card &IONS ignored
Warning: card / ignored
Warning: card &CELL ignored
Warning: card / ignored
Warning: card &FCP ignored
Warning: card / ignored
Warning: card &RISM ignored
Warning: card / ignored

     Current dimensions of program PWSCF are:
     Max number of different atomic species (ntypx) = 10
     Max number of k-points (npk) =  40000
     Max angular momentum in pseudopotentials (lmaxx) =  4

     Atomic positions and unit cell read from directory:
     ./tmp/copper.save/

     Found identity + (  0.0000 -0.5000 -0.5000) symmetry
     This is a supercell, fractional translations are disabled
     Message from routine setup:
     using ibrav=0 with symmetry is DISCOURAGED, use correct ibrav instead

     R & G space division:  proc/nbgrp/npool/nimage =       4
     Subspace diagonalization in iterative solution of the eigenvalue problem:
     a serial algorithm will be used


     Parallelization info
     --------------------
     sticks:   dense  smooth     PW     G-vecs:    dense   smooth      PW
     Min         370     370    109                10732    10732    1690
     Max         371     371    110                10735    10735    1691
     Sum        1481    1481    437                42931    42931    6763

     Using Slab Decomposition



     bravais-lattice index     =            0
     lattice parameter (alat)  =       6.8219  a.u.
     unit-cell volume          =     317.4813 (a.u.)^3
     number of atoms/cell      =            4
     number of atomic types    =            1
     number of electrons       =        76.00
     number of Kohn-Sham states=           46
     kinetic-energy cutoff     =     100.0000  Ry
     charge density cutoff     =     400.0000  Ry
     Exchange-correlation= PBE
                           (   1   4   3   4   0   0   0)

     celldm(1)=   6.821911  celldm(2)=   0.000000  celldm(3)=   0.000000
     celldm(4)=   0.000000  celldm(5)=   0.000000  celldm(6)=   0.000000

     crystal axes: (cart. coord. in units of alat)
               a(1) = (   1.000000   0.000000   0.000000 )  
               a(2) = (   0.000000   1.000000   0.000000 )  
               a(3) = (   0.000000   0.000000   1.000000 )  

     reciprocal axes: (cart. coord. in units 2 pi/alat)
               b(1) = (  1.000000  0.000000  0.000000 )  
               b(2) = (  0.000000  1.000000  0.000000 )  
               b(3) = (  0.000000  0.000000  1.000000 )  


     PseudoPot. # 1 for Cu read from file:
     ./Cu.upf
     MD5 check sum: f4fcafdff0669c9d0c6562a6f168bb87
     Pseudo is Norm-conserving + core correction, Zval = 19.0
     Generated using ONCVPSP code by D. R. Hamann
     Using radial grid of 1492 points,  6 beta functions with: 
                l(1) =   0
                l(2) =   0
                l(3) =   1
                l(4) =   1
                l(5) =   2
                l(6) =   2

     atomic species   valence    mass     pseudopotential
     Cu               19.00    63.54600     Cu( 1.00)

     48 Sym. Ops., with inversion, found



   Cartesian axes

     site n.     atom                  positions (alat units)
         1        Cu     tau(   1) = (   0.0000000   0.0000000   0.0000000  )
         2        Cu     tau(   2) = (   0.0000000   0.5000000   0.5000000  )
         3        Cu     tau(   3) = (   0.5000000   0.0000000   0.5000000  )
         4        Cu     tau(   4) = (   0.5000000   0.5000000   0.0000000  )

     number of k points=   165  Gaussian smearing, width (Ry)=  0.0100

     Number of k-points >= 100: set verbosity='high' to print them.

     Dense  grid:    42931 G-vectors     FFT dimensions: (  45,  45,  45)

     Estimated max dynamical RAM per process >      11.38 MB

     Estimated total dynamical RAM >      45.52 MB

     Check: negative core charge=   -0.000001

     The potential is recalculated from file :
     ./tmp/copper.save/charge-density

     Starting wfcs are   40 randomized atomic wfcs +    6 random wfcs

     Band Structure Calculation
     Davidson diagonalization with overlap
     c_bands:  1 eigenvalues not converged
     c_bands:  1 eigenvalues not converged

     ethr =  1.32E-13,  avg # of iterations = 32.7

     total cpu time spent up to now is      154.5 secs

     End of band structure calculation

     Number of k-points >= 100: set verbosity='high' to print the bands.

     the Fermi energy is    17.1808 ev
     (compare with:    17.1312 eV, computed in scf)

     Writing all to output data dir ./tmp/copper.save/ :
     XML data file, pseudopotentials, collected wavefunctions

     init_run     :      0.08s CPU      0.08s WALL (       1 calls)
     electrons    :    150.37s CPU    154.41s WALL (       1 calls)

     Called by init_run:
     wfcinit      :      0.00s CPU      0.00s WALL (       1 calls)
     potinit      :      0.01s CPU      0.01s WALL (       1 calls)
     hinit0       :      0.02s CPU      0.02s WALL (       1 calls)

     Called by electrons:
     c_bands      :    150.37s CPU    154.40s WALL (       1 calls)
     v_of_rho     :      0.01s CPU      0.01s WALL (       1 calls)

     Called by c_bands:
     init_us_2    :      0.13s CPU      0.15s WALL (     165 calls)
     cegterg      :    143.84s CPU    147.68s WALL (     344 calls)

     Called by *egterg:
     cdiaghg      :     11.37s CPU     10.97s WALL (    5553 calls)
     h_psi        :     75.13s CPU     77.42s WALL (    5897 calls)
     g_psi        :      0.35s CPU      0.34s WALL (    5388 calls)

     Called by h_psi:
     h_psi:calbec :     13.22s CPU     12.94s WALL (    5897 calls)
     vloc_psi     :     51.13s CPU     52.69s WALL (    5897 calls)
     add_vuspsi   :     10.11s CPU     11.10s WALL (    5897 calls)

     General routines
     calbec       :     13.21s CPU     12.94s WALL (    5897 calls)
     fft          :      0.00s CPU      0.00s WALL (      11 calls)
     fftw         :     46.62s CPU     48.17s WALL (  250958 calls)
     davcio       :      0.08s CPU      0.20s WALL (     330 calls)

     Parallel routines

     PWSCF        :   2m30.70s CPU   2m35.25s WALL


   This run was terminated on:  15:53: 9  21Oct2025            

=------------------------------------------------------------------------------=
   JOB DONE.
=------------------------------------------------------------------------------=
