Be O 
 1.0000000000000000
     2.7112110653812489    0.0000000000000000    0.0000000000000000
    -1.3556055326406204    2.3479776575866809    0.0000000000000000
     0.0000000000000000    0.0000000000000000    4.4013216656046188
 Be  O  
   2   2
Cartesian
  0.0000000000000000  1.5653184854614581  0.0002391339858626
  1.3556054518343288  0.7826591722252393  2.2008999670886737
  0.0000000000000000  1.5653184854614581  1.6634604163621887
  1.3556054518343288  0.7826591722252393  3.8641213806832799
