
     Program PWSCF v.7.4.1 starts on 31Aug2026 at 14:23:54 

     This program is part of the open-source Quantum ESPRESSO suite
     for quantum simulation of materials; please cite
         "P. Giannozzi et al., J. Phys.:Condens. Matter 21 395502 (2009);
         "P. Giannozzi et al., J. Phys.:Condens. Matter 29 465901 (2017);
         "P. Giannozzi et al., J. Chem. Phys. 152 154105 (2020);
          URL http://www.quantum-espresso.org", 
     in publications or presentations arising from this work. More details at
     http://www.quantum-espresso.org/quote

     Parallel version (MPI), running on     8 processors

     MPI processes distributed on     1 nodes
     14647 MiB available memory on the printing compute node when the environment starts

     Reading input from espresso.pwi
Warning: card &CELL ignored
Warning: card / ignored
Warning: card &FCP ignored
Warning: card / ignored
Warning: card &RISM ignored
Warning: card / ignored

     Current dimensions of program PWSCF are:
     Max number of different atomic species (ntypx) = 10
     Max number of k-points (npk) =  40000
     Max angular momentum in pseudopotentials (lmaxx) =  4
     Message from routine setup:
     using ibrav=0 with symmetry is DISCOURAGED, use correct ibrav instead

     R & G space division:  proc/nbgrp/npool/nimage =       8
     Subspace diagonalization in iterative solution of the eigenvalue problem:
     a serial algorithm will be used


     Parallelization info
     --------------------
     sticks:   dense  smooth     PW     G-vecs:    dense   smooth      PW
     Min         114     114     31                 4462     4462     685
     Max         115     115     32                 4467     4467     694
     Sum         913     913    253                35711    35711    5527

     Using Slab Decomposition



     bravais-lattice index     =            0
     lattice parameter (alat)  =       5.1234  a.u.
     unit-cell volume          =     189.0763 (a.u.)^3
     number of atoms/cell      =            4
     number of atomic types    =            2
     number of electrons       =        20.00
     number of Kohn-Sham states=           14
     kinetic-energy cutoff     =     125.0000  Ry
     charge density cutoff     =     500.0000  Ry
     scf convergence threshold =      1.0E-10
     mixing beta               =       0.2000
     number of iterations used =            8  plain     mixing
     Exchange-correlation= PBE
                           (   1   4   3   4   0   0   0)

     celldm(1)=   5.123446  celldm(2)=   0.000000  celldm(3)=   0.000000
     celldm(4)=   0.000000  celldm(5)=   0.000000  celldm(6)=   0.000000

     crystal axes: (cart. coord. in units of alat)
               a(1) = (   1.000000   0.000000   0.000000 )  
               a(2) = (  -0.500000   0.866025   0.000000 )  
               a(3) = (   0.000000   0.000000   1.623378 )  

     reciprocal axes: (cart. coord. in units 2 pi/alat)
               b(1) = (  1.000000  0.577350 -0.000000 )  
               b(2) = (  0.000000  1.154701  0.000000 )  
               b(3) = (  0.000000 -0.000000  0.615999 )  


     PseudoPot. # 1 for Be read from file:
     ./Be.upf
     MD5 check sum: b02a733c23bac4ae802686de49feac74
     Pseudo is Norm-conserving, Zval =  4.0
     Generated using ONCVPSP code by D. R. Hamann
     Using radial grid of 1358 points,  4 beta functions with: 
                l(1) =   0
                l(2) =   0
                l(3) =   1
                l(4) =   1

     PseudoPot. # 2 for O  read from file:
     ./O.upf
     MD5 check sum: 9db02a5ece9d56b81b65a73f8163743d
     Pseudo is Norm-conserving + core correction, Zval =  6.0
     Generated using ONCVPSP code by D. R. Hamann
     Using radial grid of  936 points,  5 beta functions with: 
                l(1) =   0
                l(2) =   0
                l(3) =   1
                l(4) =   1
                l(5) =   2

     atomic species   valence    mass     pseudopotential
     Be                4.00     9.01218     Be( 1.00)
     O                 6.00    15.99900     O ( 1.00)

     12 Sym. Ops. (no inversion) found ( 6 have fractional translation)



   Cartesian axes

     site n.     atom                  positions (alat units)
         1        Be     tau(   1) = (   0.0000000   0.5773503   0.0000882  )
         2        Be     tau(   2) = (   0.5000000   0.2886751   0.8117774  )
         3        O      tau(   3) = (   0.0000000   0.5773503   0.6135488  )
         4        O      tau(   4) = (   0.5000000   0.2886751   1.4252381  )

     number of k points=    42  Gaussian smearing, width (Ry)=  0.0100
                       cart. coord. in units 2pi/alat
        k(    1) = (   0.0000000   0.0000000   0.0000000), wk =   0.0040000
        k(    2) = (   0.0000000   0.0000000   0.1231999), wk =   0.0080000
        k(    3) = (   0.0000000   0.0000000   0.2463997), wk =   0.0080000
        k(    4) = (   0.0000000   0.1154701   0.0000000), wk =   0.0240000
        k(    5) = (   0.0000000   0.1154701   0.1231999), wk =   0.0480000
        k(    6) = (   0.0000000   0.1154701   0.2463997), wk =   0.0480000
        k(    7) = (   0.0000000   0.2309401   0.0000000), wk =   0.0240000
        k(    8) = (   0.0000000   0.2309401   0.1231999), wk =   0.0480000
        k(    9) = (   0.0000000   0.2309401   0.2463997), wk =   0.0480000
        k(   10) = (   0.0000000   0.3464102   0.0000000), wk =   0.0240000
        k(   11) = (   0.0000000   0.3464102   0.1231999), wk =   0.0480000
        k(   12) = (   0.0000000   0.3464102   0.2463997), wk =   0.0480000
        k(   13) = (   0.0000000   0.4618802   0.0000000), wk =   0.0240000
        k(   14) = (   0.0000000   0.4618802   0.1231999), wk =   0.0480000
        k(   15) = (   0.0000000   0.4618802   0.2463997), wk =   0.0480000
        k(   16) = (   0.0000000  -0.5773503   0.0000000), wk =   0.0120000
        k(   17) = (   0.0000000  -0.5773503   0.1231999), wk =   0.0240000
        k(   18) = (   0.0000000  -0.5773503   0.2463997), wk =   0.0240000
        k(   19) = (   0.1000000   0.1732051   0.0000000), wk =   0.0240000
        k(   20) = (   0.1000000   0.1732051   0.1231999), wk =   0.0480000
        k(   21) = (   0.1000000   0.1732051   0.2463997), wk =   0.0480000
        k(   22) = (   0.1000000   0.2886751   0.0000000), wk =   0.0480000
        k(   23) = (   0.1000000   0.2886751   0.1231999), wk =   0.0960000
        k(   24) = (   0.1000000   0.2886751   0.2463997), wk =   0.0960000
        k(   25) = (   0.1000000   0.4041452   0.0000000), wk =   0.0480000
        k(   26) = (   0.1000000   0.4041452   0.1231999), wk =   0.0960000
        k(   27) = (   0.1000000   0.4041452   0.2463997), wk =   0.0960000
        k(   28) = (   0.1000000   0.5196152   0.0000000), wk =   0.0480000
        k(   29) = (   0.1000000   0.5196152   0.1231999), wk =   0.0960000
        k(   30) = (   0.1000000   0.5196152   0.2463997), wk =   0.0960000
        k(   31) = (   0.2000000   0.3464102   0.0000000), wk =   0.0240000
        k(   32) = (   0.2000000   0.3464102   0.1231999), wk =   0.0480000
        k(   33) = (   0.2000000   0.3464102   0.2463997), wk =   0.0480000
        k(   34) = (   0.2000000   0.4618802   0.0000000), wk =   0.0480000
        k(   35) = (   0.2000000   0.4618802   0.1231999), wk =   0.0960000
        k(   36) = (   0.2000000   0.4618802   0.2463997), wk =   0.0960000
        k(   37) = (   0.2000000   0.5773503   0.0000000), wk =   0.0240000
        k(   38) = (   0.2000000   0.5773503   0.1231999), wk =   0.0480000
        k(   39) = (   0.2000000   0.5773503   0.2463997), wk =   0.0480000
        k(   40) = (   0.3000000   0.5196152   0.0000000), wk =   0.0240000
        k(   41) = (   0.3000000   0.5196152   0.1231999), wk =   0.0480000
        k(   42) = (   0.3000000   0.5196152   0.2463997), wk =   0.0480000

     Dense  grid:    35711 G-vectors     FFT dimensions: (  40,  40,  60)

     Estimated max dynamical RAM per process >      11.43 MB

     Estimated total dynamical RAM >      91.43 MB

     Initial potential from superposition of free atoms

     starting charge      19.9996, renormalised to      20.0000
     Starting wfcs are   12 randomized atomic wfcs +    2 random wfcs

     total cpu time spent up to now is        0.3 secs

     Self-consistent Calculation

     iteration #  1     ecut=   125.00 Ry     beta= 0.20
     Davidson diagonalization with overlap
     ethr =  1.00E-02,  avg # of iterations =  5.5

     total cpu time spent up to now is        1.2 secs

     total energy              =    -123.36516703 Ry
     estimated scf accuracy    <       0.54914497 Ry

     iteration #  2     ecut=   125.00 Ry     beta= 0.20
     Davidson diagonalization with overlap
     ethr =  2.75E-03,  avg # of iterations =  1.6

     total cpu time spent up to now is        1.8 secs

     total energy              =    -123.33174100 Ry
     estimated scf accuracy    <       0.15453247 Ry

     iteration #  3     ecut=   125.00 Ry     beta= 0.20
     Davidson diagonalization with overlap
     ethr =  7.73E-04,  avg # of iterations =  3.0

     total cpu time spent up to now is        2.5 secs

     total energy              =    -123.35883296 Ry
     estimated scf accuracy    <       0.01578211 Ry

     iteration #  4     ecut=   125.00 Ry     beta= 0.20
     Davidson diagonalization with overlap
     ethr =  7.89E-05,  avg # of iterations =  3.5

     total cpu time spent up to now is        3.3 secs

     total energy              =    -123.35937124 Ry
     estimated scf accuracy    <       0.00125829 Ry

     iteration #  5     ecut=   125.00 Ry     beta= 0.20
     Davidson diagonalization with overlap
     ethr =  6.29E-06,  avg # of iterations =  3.8

     total cpu time spent up to now is        4.1 secs

     total energy              =    -123.35948955 Ry
     estimated scf accuracy    <       0.00005957 Ry

     iteration #  6     ecut=   125.00 Ry     beta= 0.20
     Davidson diagonalization with overlap
     ethr =  2.98E-07,  avg # of iterations =  5.9

     total cpu time spent up to now is        5.1 secs

     total energy              =    -123.35949440 Ry
     estimated scf accuracy    <       0.00013866 Ry

     iteration #  7     ecut=   125.00 Ry     beta= 0.20
     Davidson diagonalization with overlap
     ethr =  2.98E-07,  avg # of iterations =  2.4

     total cpu time spent up to now is        5.9 secs

     total energy              =    -123.35952462 Ry
     estimated scf accuracy    <       0.00000037 Ry

     iteration #  8     ecut=   125.00 Ry     beta= 0.20
     Davidson diagonalization with overlap
     c_bands:  2 eigenvalues not converged
     c_bands:  1 eigenvalues not converged
     ethr =  1.83E-09,  avg # of iterations =  7.8

     total cpu time spent up to now is        6.9 secs

     total energy              =    -123.35952479 Ry
     estimated scf accuracy    <       0.00000121 Ry

     iteration #  9     ecut=   125.00 Ry     beta= 0.20
     Davidson diagonalization with overlap
     ethr =  1.83E-09,  avg # of iterations =  2.2

     total cpu time spent up to now is        7.6 secs

     total energy              =    -123.35952486 Ry
     estimated scf accuracy    <       0.00000011 Ry

     iteration # 10     ecut=   125.00 Ry     beta= 0.20
     Davidson diagonalization with overlap
     ethr =  5.40E-10,  avg # of iterations =  3.8

     total cpu time spent up to now is        8.4 secs

     total energy              =    -123.35952489 Ry
     estimated scf accuracy    <          4.5E-10 Ry

     iteration # 11     ecut=   125.00 Ry     beta= 0.20
     Davidson diagonalization with overlap
     ethr =  2.27E-12,  avg # of iterations =  8.1

     total cpu time spent up to now is        9.4 secs

     End of self-consistent calculation

          k = 0.0000 0.0000 0.0000 (  4475 PWs)   bands (ev):

   -90.5010 -90.4985 -12.4564 -10.6878  -0.0561   5.0887   5.0887   6.0419
     6.0419   6.0839  13.5884  17.5895  20.3135  20.3135

          k = 0.0000 0.0000 0.1232 (  4445 PWs)   bands (ev):

   -90.5007 -90.4987 -12.3226 -10.9065   0.4761   5.1749   5.1749   5.3506
     5.9459   5.9459  14.1053  17.2629  20.4081  20.4081

          k = 0.0000 0.0000 0.2464 (  4422 PWs)   bands (ev):

   -90.5001 -90.4993 -11.9461 -11.4137   1.8708   3.6849   5.4052   5.4052
     5.6996   5.6996  15.2274  16.3940  20.5708  20.6458

          k = 0.0000 0.1155 0.0000 (  4455 PWs)   bands (ev):

   -90.5007 -90.4984 -12.3408 -10.6261   0.0886   4.6141   4.8914   5.5279
     5.9688   5.9967  13.9886  17.9817  20.1122  20.4136

          k = 0.0000 0.1155 0.1232 (  4446 PWs)   bands (ev):

   -90.5005 -90.4986 -12.2102 -10.8363   0.5954   4.7024   4.9870   5.0516
     5.7358   5.8580  14.3964  17.5634  20.0936  20.3940

          k = 0.0000 0.1155 0.2464 (  4435 PWs)   bands (ev):

   -90.4999 -90.4992 -11.8432 -11.3262   1.9151   3.5920   5.0011   5.2440
     5.3683   5.5763  15.3788  16.5536  20.0542  20.1866

          k = 0.0000 0.2309 0.0000 (  4452 PWs)   bands (ev):

   -90.5002 -90.4982 -12.0126 -10.4679   0.4997   3.4388   4.4200   4.4365
     5.7263   5.7539  14.8150  18.5590  19.0902  20.6038

          k = 0.0000 0.2309 0.1232 (  4452 PWs)   bands (ev):

   -90.5000 -90.4984 -11.8923 -10.6523   0.9099   3.5483   4.1234   4.5495
     5.4929   5.6131  14.9576  17.7542  19.5106  20.4825

          k = 0.0000 0.2309 0.2464 (  4450 PWs)   bands (ev):

   -90.4995 -90.4989 -11.5562 -11.0882   1.9313   3.0745   4.1771   4.8538
     4.8566   5.2616  15.5356  16.5660  19.7973  20.0939

          k = 0.0000 0.3464 0.0000 (  4452 PWs)   bands (ev):

   -90.4995 -90.4979 -11.5337 -10.2949   1.0151   2.2445   3.2654   3.9526
     5.2551   5.4745  15.5076  17.7279  18.7497  21.2990

          k = 0.0000 0.3464 0.1232 (  4467 PWs)   bands (ev):

   -90.4993 -90.4981 -11.4331 -10.4355   1.1362   2.4611   3.1042   4.0798
     5.1925   5.3071  15.3232  17.0474  19.4259  21.2025

          k = 0.0000 0.3464 0.2464 (  4470 PWs)   bands (ev):

   -90.4989 -90.4985 -11.1550 -10.7767   1.5162   2.0952   3.7445   4.4283
     4.6916   4.8947  15.3812  16.0891  19.9762  20.5414

          k = 0.0000 0.4619 0.0000 (  4484 PWs)   bands (ev):

   -90.4989 -90.4978 -11.0296 -10.2223   0.7564   2.2769   2.4222   3.6038
     4.6114   5.2498  15.7819  16.6668  19.0759  21.2240

          k = 0.0000 0.4619 0.1232 (  4459 PWs)   bands (ev):

   -90.4988 -90.4979 -10.9595 -10.3072   0.6927   1.8999   2.9087   3.7394
     4.7686   5.0657  15.3494  16.3020  19.7831  21.1404

          k = 0.0000 0.4619 0.2464 (  4467 PWs)   bands (ev):

   -90.4985 -90.4981 -10.7695 -10.5209   0.8036   1.2534   3.8800   4.1124
     4.6157   4.6463  15.0713  15.5877  20.2496  20.8938

          k = 0.0000-0.5774 0.0000 (  4490 PWs)   bands (ev):

   -90.4986 -90.4978 -10.7594 -10.2586   0.4465   2.0719   2.7559   3.4784
     4.1591   5.1652  15.8291  16.2538  19.3592  21.0084

          k = 0.0000-0.5774 0.1232 (  4476 PWs)   bands (ev):

   -90.4985 -90.4978 -10.7133 -10.3079   0.3946   1.6214   3.1803   3.6167
     4.4727   4.9755  15.2804  16.0377  20.2853  20.6234

          k = 0.0000-0.5774 0.2464 (  4474 PWs)   bands (ev):

   -90.4983 -90.4980 -10.5908 -10.4358   0.4879   0.9264   3.9976   4.0307
     4.5131   4.6019  14.9164  15.3966  20.4095  20.8922

          k = 0.1000 0.1732 0.0000 (  4463 PWs)   bands (ev):

   -90.5004 -90.4982 -12.1187 -10.5157   0.3686   3.9844   4.1445   5.0540
     5.7172   5.8192  14.6153  18.5283  19.4260  20.3040

          k = 0.1000 0.1732 0.1232 (  4459 PWs)   bands (ev):

   -90.5002 -90.4984 -11.9948 -10.7089   0.8165   4.0836   4.1112   4.8170
     5.5844   5.6033  14.8478  17.8635  19.5920  20.2619

          k = 0.1000 0.1732 0.2464 (  4448 PWs)   bands (ev):

   -90.4996 -90.4990 -11.6480 -11.1631   1.9556   3.2892   4.4596   4.7529
     5.1606   5.2703  15.5687  16.6741  19.7435  19.9622

          k = 0.1000 0.2887 0.0000 (  4459 PWs)   bands (ev):

   -90.4997 -90.4980 -11.7131 -10.3477   0.8742   2.7587   3.3306   4.3796
     5.3571   5.4555  15.4806  18.0315  19.2453  20.6854

          k = 0.1000 0.2887 0.1232 (  4451 PWs)   bands (ev):

   -90.4996 -90.4982 -11.6042 -10.5060   1.1521   2.8290   3.3906   4.2533
     5.1639   5.3958  15.4402  17.4906  19.4785  20.4372

          k = 0.1000 0.2887 0.2464 (  4463 PWs)   bands (ev):

   -90.4991 -90.4986 -11.3017 -10.8861   1.8071   2.5044   3.8578   4.2866
     4.7682   4.9815  15.6976  16.4996  19.7392  20.0364

          k = 0.1000 0.4041 0.0000 (  4453 PWs)   bands (ev):

   -90.4991 -90.4978 -11.2132 -10.2219   1.1176   2.0093   2.6879   3.7028
     4.8865   5.0678  16.0289  17.1041  19.0124  21.2015

          k = 0.1000 0.4041 0.1232 (  4452 PWs)   bands (ev):

   -90.4989 -90.4979 -11.1297 -10.3298   1.0685   2.0420   2.8920   3.7253
     4.7776   5.0782  15.7158  16.8062  19.3597  21.0362

          k = 0.1000 0.4041 0.2464 (  4466 PWs)   bands (ev):

   -90.4986 -90.4982 -10.9015 -10.5972   1.2141   1.6314   3.5819   4.0374
     4.4092   4.8767  15.5614  16.0930  19.8728  20.4819

          k = 0.1000 0.5196 0.0000 (  4461 PWs)   bands (ev):

   -90.4986 -90.4978 -10.7884 -10.2288   0.5896   2.1920   2.5989   3.3712
     4.2522   4.8919  15.8737  16.7805  19.1935  21.0010

          k = 0.1000 0.5196 0.1232 (  4471 PWs)   bands (ev):

   -90.4985 -90.4978 -10.7377 -10.2850   0.5568   1.7544   2.9114   3.6131
     4.4136   4.8056  15.5364  16.5400  19.6286  20.6690

          k = 0.1000 0.5196 0.2464 (  4466 PWs)   bands (ev):

   -90.4983 -90.4980 -10.6022 -10.4293   0.6689   1.0984   3.4266   3.9893
     4.3276   4.8066  15.3269  15.8481  20.1370  20.4645

          k = 0.2000 0.3464 0.0000 (  4453 PWs)   bands (ev):

   -90.4991 -90.4978 -11.2809 -10.2228   1.4076   1.8442   2.6859   3.9468
     4.7031   5.0195  16.5233  16.8843  19.9617  20.5861

          k = 0.2000 0.3464 0.1232 (  4469 PWs)   bands (ev):

   -90.4990 -90.4979 -11.1928 -10.3395   1.4108   1.8693   3.0698   3.6854
     4.5213   5.1363  16.2820  16.8278  19.7221  20.2645

          k = 0.2000 0.3464 0.2464 (  4463 PWs)   bands (ev):

   -90.4987 -90.4983 -10.9511 -10.6268   1.5554   1.7940   3.5209   3.6338
     4.3803   4.9379  16.1100  16.4601  19.6551  19.8556

          k = 0.2000 0.4619 0.0000 (  4467 PWs)   bands (ev):

   -90.4986 -90.4978 -10.8295 -10.1864   0.9457   1.9486   2.7109   3.3021
     4.2175   4.4964  15.9185  17.5323  19.6024  20.9484

          k = 0.2000 0.4619 0.1232 (  4464 PWs)   bands (ev):

   -90.4985 -90.4978 -10.7724 -10.2525   0.9874   1.7064   2.8430   3.3831
     4.0449   4.7767  16.0697  17.2086  19.3350  20.3954

          k = 0.2000 0.4619 0.2464 (  4466 PWs)   bands (ev):

   -90.4983 -90.4980 -10.6190 -10.4206   1.1249   1.3960   2.8519   3.2649
     4.4174   4.8970  16.2276  16.6159  19.3663  19.7348

          k = 0.2000 0.5774 0.0000 (  4469 PWs)   bands (ev):

   -90.4983 -90.4978 -10.5779 -10.2412   0.6101   2.3634   2.4650   3.3448
     3.8259   4.2711  15.5492  17.9057  19.5807  20.8292

          k = 0.2000 0.5774 0.1232 (  4461 PWs)   bands (ev):

   -90.4982 -90.4978 -10.5463 -10.2737   0.6740   1.9407   2.3773   3.6720
     3.8135   4.5346  15.7760  17.6184  19.1730  20.2410

          k = 0.2000 0.5774 0.2464 (  4477 PWs)   bands (ev):

   -90.4981 -90.4980 -10.4628 -10.3586   0.8859   1.3141   2.5714   3.1058
     4.5362   4.8394  16.1453  16.8041  19.1895  19.6226

          k = 0.3000 0.5196 0.0000 (  4481 PWs)   bands (ev):

   -90.4982 -90.4978 -10.4916 -10.2497   0.6703   2.2099   2.7659   3.2081
     3.6198   3.9939  15.3316  18.5912  20.0956  20.7081

          k = 0.3000 0.5196 0.1232 (  4468 PWs)   bands (ev):

   -90.4981 -90.4979 -10.4685 -10.2727   0.8393   1.8918   2.4113   3.0680
     3.9603   4.4126  15.8392  18.2795  19.3677  19.6953

          k = 0.3000 0.5196 0.2464 (  4478 PWs)   bands (ev):

   -90.4980 -90.4979 -10.4080 -10.3332   1.2527   1.5607   2.0974   2.4376
     4.6314   4.8268  16.8455  17.5089  18.6299  18.7519

     the Fermi energy is     8.3444 ev

!    total energy              =    -123.35952489 Ry
     estimated scf accuracy    <          8.2E-11 Ry
     smearing contrib. (-TS)   =      -0.00000000 Ry
     internal energy E=F+TS    =    -123.35952489 Ry

     The total energy is F=E-TS. E is the sum of the following terms:
     one-electron contribution =     -44.54192186 Ry
     hartree contribution      =      25.01830472 Ry
     xc contribution           =     -27.36387785 Ry
     ewald contribution        =     -76.47202989 Ry

     convergence has been achieved in  11 iterations

     Forces acting on atoms (cartesian axes, Ry/au):

     atom    1 type  1   force =    -0.00000000   -0.00000000    0.00009039
     atom    2 type  1   force =     0.00000000    0.00000000    0.00009039
     atom    3 type  2   force =    -0.00000000   -0.00000000   -0.00009039
     atom    4 type  2   force =    -0.00000000   -0.00000000   -0.00009039

     Total force =     0.000181     Total SCF correction =     0.000004


     Computing stress (Cartesian axis) and pressure

          total   stress  (Ry/bohr**3)                   (kbar)     P=       -0.93
  -0.00000913   0.00000000   0.00000000           -1.34        0.00        0.00
   0.00000000  -0.00000913   0.00000000            0.00       -1.34        0.00
   0.00000000   0.00000000  -0.00000080            0.00        0.00       -0.12


     Writing all to output data dir ./tmp/BeO_Electronic.save/ :
     XML data file, charge density, pseudopotentials, collected wavefunctions

     init_run     :      0.21s CPU      0.24s WALL (       1 calls)
     electrons    :      8.61s CPU      9.15s WALL (       1 calls)
     forces       :      0.08s CPU      0.08s WALL (       1 calls)
     stress       :      0.34s CPU      0.35s WALL (       1 calls)

     Called by init_run:
     wfcinit      :      0.17s CPU      0.20s WALL (       1 calls)
     potinit      :      0.01s CPU      0.01s WALL (       1 calls)
     hinit0       :      0.02s CPU      0.02s WALL (       1 calls)

     Called by electrons:
     c_bands      :      7.64s CPU      8.10s WALL (      11 calls)
     sum_band     :      0.87s CPU      0.94s WALL (      11 calls)
     v_of_rho     :      0.07s CPU      0.09s WALL (      12 calls)
     mix_rho      :      0.03s CPU      0.03s WALL (      11 calls)

     Called by c_bands:
     init_us_2    :      0.20s CPU      0.21s WALL (    1050 calls)
     cegterg      :      7.31s CPU      7.76s WALL (     462 calls)

     Called by *egterg:
     cdiaghg      :      0.34s CPU      0.36s WALL (    2457 calls)
     h_psi        :      5.87s CPU      6.25s WALL (    2499 calls)
     g_psi        :      0.02s CPU      0.02s WALL (    1995 calls)

     Called by h_psi:
     h_psi:calbec :      0.68s CPU      0.73s WALL (    2499 calls)
     vloc_psi     :      4.75s CPU      5.05s WALL (    2499 calls)
     add_vuspsi   :      0.38s CPU      0.41s WALL (    2499 calls)

     General routines
     calbec       :      0.97s CPU      1.03s WALL (    3213 calls)
     fft          :      0.04s CPU      0.04s WALL (     144 calls)
     ffts         :      0.00s CPU      0.00s WALL (      11 calls)
     fftw         :      5.01s CPU      5.34s WALL (   46108 calls)

     Parallel routines

     PWSCF        :      9.32s CPU      9.94s WALL


   This run was terminated on:  14:24: 4  31Aug2026            

=------------------------------------------------------------------------------=
   JOB DONE.
=------------------------------------------------------------------------------=
