C4
1.0
        7.4031720161         0.0000000000         0.0000000000
       -3.7015860081         6.4113350346         0.0000000000
        0.0000000000         0.0000000000        15.0000000000
    C Hg
   18 1
Cartesian
     0.000000000         0.000000000         7.500000000
    -1.233862003         2.137111678         7.500000000
    -2.467724005         4.274223356         7.500000000
     2.467724005         0.000000000         7.500000000
     1.233862003         2.137111678         7.500000000
     0.000000000         4.274223356         7.500000000
     4.935448011         0.000000000         7.500000000
     3.701586008         2.137111678         7.500000000
     2.467724005         4.274223356         7.500000000
    -0.000000012         1.424741126         7.500000000
    -1.233862015         3.561852804         7.500000000
    -2.467724017         5.698964483         7.500000000
     2.467723993         1.424741126         7.500000000
     1.233861991         3.561852804         7.500000000
    -0.000000012         5.698964483         7.500000000
     4.935447999         1.424741126         7.500000000
     3.701585996         3.561852804         7.500000000
     2.467723993         5.698964483         7.500000000
     3.701586008         2.137111678         10.90000000
