C  Hg
 1.0000000000000000
     7.4031720161000001    0.0000000000000000    0.0000000000000000
    -3.7015860081000000    6.4113350346000004    0.0000000000000000
     0.0000000000000000    0.0000000000000000   15.0000000000000000
 C   Hg 
  18   1
Cartesian
  0.0000000000000000  0.0000000000000000  7.5051437389350006
 -1.2338562452981749  2.1371229011806738  7.5002922614628789
 -2.4677114226757042  4.2742227960793295  7.5002922614628789
  2.4677308232446622 -0.0000105875594157  7.5002922614628789
  1.2338562452981749  2.1371229011806738  7.5002922614628789
  0.0000000000000000  4.2742233560000003  7.5066034567404305
  4.9354411927553272 -0.0000105875594157  7.5002922614628789
  3.7015860080000000  2.1371116780000001  7.4818779083237414
  2.4677114226757042  4.2742227960793295  7.5002922614628789
 -0.0000000120000000  1.4246537601579596  7.5048496566752529
 -1.2338284320943647  3.5618722196955903  7.5033458468138869
 -2.4677997336581727  5.6990081821409753  7.5048496566752529
  2.4675827198826648  1.4246595797625032  7.4901709477523983
  1.2338284080943647  3.5618722196955903  7.5033458468138869
 -0.0000000120000000  5.6989256666002976  7.5033458468138869
  4.9355892721173467  1.4246595797625032  7.4901709477523983
  3.7015859959999999  3.5620158751057112  7.4901709477523983
  2.4677997096581725  5.6990081821409753  7.5048496566752529
  3.7015860080000000  2.1371116780000001 10.9095218406436008
