
     Program PWSCF v.7.4.1 starts on 25Sep2026 at 15:34:51 

     This program is part of the open-source Quantum ESPRESSO suite
     for quantum simulation of materials; please cite
         "P. Giannozzi et al., J. Phys.:Condens. Matter 21 395502 (2009);
         "P. Giannozzi et al., J. Phys.:Condens. Matter 29 465901 (2017);
         "P. Giannozzi et al., J. Chem. Phys. 152 154105 (2020);
          URL http://www.quantum-espresso.org", 
     in publications or presentations arising from this work. More details at
     http://www.quantum-espresso.org/quote

     Parallel version (MPI), running on     8 processors

     MPI processes distributed on     1 nodes
     12863 MiB available memory on the printing compute node when the environment starts

     Reading input from espresso.pwi
Warning: card &CELL ignored
Warning: card / ignored
Warning: card &FCP ignored
Warning: card / ignored
Warning: card &RISM ignored
Warning: card / ignored

     Current dimensions of program PWSCF are:
     Max number of different atomic species (ntypx) = 10
     Max number of k-points (npk) =  40000
     Max angular momentum in pseudopotentials (lmaxx) =  4
     file N.pbe-n-kjpaw_psl.1.0.0.UPF: wavefunction(s)  2S renormalized
     Message from routine setup:
     using ibrav=0 with symmetry is DISCOURAGED, use correct ibrav instead

     R & G space division:  proc/nbgrp/npool/nimage =       8
     Subspace diagonalization in iterative solution of the eigenvalue problem:
     a serial algorithm will be used


     Parallelization info
     --------------------
     sticks:   dense  smooth     PW     G-vecs:    dense   smooth      PW
     Min        2274    1135    281               230694    81581   10163
     Max        2275    1136    282               230699    81586   10166
     Sum       18197    9085   2253              1845573   652671   81313

     Using Slab Decomposition



     bravais-lattice index     =            0
     lattice parameter (alat)  =      18.8973  a.u.
     unit-cell volume          =    6748.3345 (a.u.)^3
     number of atoms/cell      =            2
     number of atomic types    =            1
     number of electrons       =        10.00
     number of Kohn-Sham states=            9
     kinetic-energy cutoff     =      80.0000  Ry
     charge density cutoff     =     640.0000  Ry
     scf convergence threshold =      1.0E-10
     mixing beta               =       0.2000
     number of iterations used =            8  plain     mixing
     Exchange-correlation= SLA  PW   PBX  PBC
                           (   1   4   3   4   0   0   0)

     celldm(1)=  18.897261  celldm(2)=   0.000000  celldm(3)=   0.000000
     celldm(4)=   0.000000  celldm(5)=   0.000000  celldm(6)=   0.000000

     crystal axes: (cart. coord. in units of alat)
               a(1) = (   1.000000   0.000000   0.000000 )  
               a(2) = (   0.000000   1.000000   0.000000 )  
               a(3) = (   0.000000   0.000000   1.000000 )  

     reciprocal axes: (cart. coord. in units 2 pi/alat)
               b(1) = (  1.000000  0.000000  0.000000 )  
               b(2) = (  0.000000  1.000000  0.000000 )  
               b(3) = (  0.000000  0.000000  1.000000 )  


     PseudoPot. # 1 for N  read from file:
     ./N.pbe-n-kjpaw_psl.1.0.0.UPF
     MD5 check sum: 14c48229446f9f2d411169a3abcbc3fa
     Pseudo is Projector augmented-wave + core cor, Zval =  5.0
     Generated using &quot;atomic&quot; code by A. Dal Corso  v.6.3
     Shape of augmentation charge: PSQ
     Using radial grid of 1085 points,  4 beta functions with: 
                l(1) =   0
                l(2) =   0
                l(3) =   1
                l(4) =   1
     Q(r) pseudized with 0 coefficients 


     atomic species   valence    mass     pseudopotential
     N                 5.00    14.00700     N ( 1.00)

      8 Sym. Ops. (no inversion) found



   Cartesian axes

     site n.     atom                  positions (alat units)
         1        N      tau(   1) = (  -0.0000000   0.0000000  -0.0006013  )
         2        N      tau(   2) = (  -0.0000000  -0.0000000   0.1114013  )

     number of k points=     1  Gaussian smearing, width (Ry)=  0.0100
                       cart. coord. in units 2pi/alat
        k(    1) = (   0.0000000   0.0000000   0.0000000), wk =   2.0000000

     Dense  grid:  1845573 G-vectors     FFT dimensions: ( 160, 160, 160)

     Smooth grid:   652671 G-vectors     FFT dimensions: ( 108, 108, 108)

     Estimated max dynamical RAM per process >     310.42 MB

     Estimated total dynamical RAM >       2.43 GB

     Initial potential from superposition of free atoms

     starting charge      10.0000, renormalised to      10.0000

     negative rho (up, down):  2.658E-04 0.000E+00
     Starting wfcs are    8 randomized atomic wfcs +    1 random wfcs
     Checking if some PAW data can be deallocated... 

     total cpu time spent up to now is        3.0 secs

     Self-consistent Calculation

     iteration #  1     ecut=    80.00 Ry     beta= 0.20
     Davidson diagonalization with overlap
     ethr =  1.00E-02,  avg # of iterations =  7.0

     negative rho (up, down):  2.949E-04 0.000E+00

     total cpu time spent up to now is        5.9 secs

     total energy              =     -56.45964087 Ry
     estimated scf accuracy    <       0.13387990 Ry

     iteration #  2     ecut=    80.00 Ry     beta= 0.20
     Davidson diagonalization with overlap
     ethr =  1.34E-03,  avg # of iterations =  8.0

     negative rho (up, down):  4.667E-04 0.000E+00

     total cpu time spent up to now is        8.7 secs

     total energy              =     -56.42464588 Ry
     estimated scf accuracy    <       0.06613299 Ry

     iteration #  3     ecut=    80.00 Ry     beta= 0.20
     Davidson diagonalization with overlap
     ethr =  6.61E-04,  avg # of iterations =  2.0

     negative rho (up, down):  4.809E-04 0.000E+00

     total cpu time spent up to now is       11.5 secs

     total energy              =     -56.43437300 Ry
     estimated scf accuracy    <       0.00417329 Ry

     iteration #  4     ecut=    80.00 Ry     beta= 0.20
     Davidson diagonalization with overlap
     ethr =  4.17E-05,  avg # of iterations =  5.0

     negative rho (up, down):  5.259E-04 0.000E+00

     total cpu time spent up to now is       14.4 secs

     total energy              =     -56.43421129 Ry
     estimated scf accuracy    <       0.00265847 Ry

     iteration #  5     ecut=    80.00 Ry     beta= 0.20
     Davidson diagonalization with overlap
     ethr =  2.66E-05,  avg # of iterations =  4.0

     negative rho (up, down):  5.055E-04 0.000E+00

     total cpu time spent up to now is       17.2 secs

     total energy              =     -56.43464297 Ry
     estimated scf accuracy    <       0.00000946 Ry

     iteration #  6     ecut=    80.00 Ry     beta= 0.20
     Davidson diagonalization with overlap
     c_bands:  1 eigenvalues not converged
     ethr =  9.46E-08,  avg # of iterations = 20.0

     negative rho (up, down):  4.811E-04 0.000E+00

     total cpu time spent up to now is       20.5 secs

     total energy              =     -56.43463612 Ry
     estimated scf accuracy    <       0.00001867 Ry

     iteration #  7     ecut=    80.00 Ry     beta= 0.20
     Davidson diagonalization with overlap
     c_bands:  1 eigenvalues not converged
     ethr =  9.46E-08,  avg # of iterations = 20.0

     negative rho (up, down):  4.668E-04 0.000E+00

     total cpu time spent up to now is       23.7 secs

     total energy              =     -56.43463970 Ry
     estimated scf accuracy    <       0.00000014 Ry

     iteration #  8     ecut=    80.00 Ry     beta= 0.20
     Davidson diagonalization with overlap
     c_bands:  1 eigenvalues not converged
     ethr =  1.40E-09,  avg # of iterations = 20.0

     negative rho (up, down):  4.582E-04 0.000E+00

     total cpu time spent up to now is       27.0 secs

     total energy              =     -56.43463960 Ry
     estimated scf accuracy    <       0.00000004 Ry

     iteration #  9     ecut=    80.00 Ry     beta= 0.20
     Davidson diagonalization with overlap
     ethr =  4.06E-10,  avg # of iterations = 19.0

     negative rho (up, down):  4.529E-04 0.000E+00

     total cpu time spent up to now is       30.2 secs

     total energy              =     -56.43463955 Ry
     estimated scf accuracy    <          8.9E-10 Ry

     iteration # 10     ecut=    80.00 Ry     beta= 0.20
     Davidson diagonalization with overlap
     c_bands:  1 eigenvalues not converged
     ethr =  8.92E-12,  avg # of iterations = 20.0

     negative rho (up, down):  4.501E-04 0.000E+00

     total cpu time spent up to now is       33.4 secs

     total energy              =     -56.43463951 Ry
     estimated scf accuracy    <          9.9E-10 Ry

     iteration # 11     ecut=    80.00 Ry     beta= 0.20
     Davidson diagonalization with overlap
     ethr =  8.92E-12,  avg # of iterations =  9.0

     negative rho (up, down):  4.516E-04 0.000E+00

     total cpu time spent up to now is       36.3 secs

     End of self-consistent calculation

          k = 0.0000 0.0000 0.0000 ( 81313 PWs)   bands (ev):

   -27.8879 -13.4314 -11.2971 -11.2971 -10.0165  -2.0223  -2.0223  -0.2329
     1.1266

     the Fermi energy is    -5.4468 ev

!    total energy              =     -56.43463939 Ry
     total all-electron energy =      -219.032236 Ry
     estimated scf accuracy    <          4.3E-11 Ry
     smearing contrib. (-TS)   =      -0.00000000 Ry
     internal energy E=F+TS    =     -56.43463939 Ry

     The total energy is F=E-TS. E is the sum of the following terms:
     one-electron contribution =     -78.57099117 Ry
     hartree contribution      =      40.53577513 Ry
     xc contribution           =     -11.08579740 Ry
     ewald contribution        =       8.67991193 Ry
     one-center paw contrib.   =     -15.99353787 Ry

     convergence has been achieved in  11 iterations

     negative rho (up, down):  4.516E-04 0.000E+00

     Forces acting on atoms (cartesian axes, Ry/au):

     atom    1 type  1   force =     0.00000000    0.00000000    0.05331048
     atom    2 type  1   force =     0.00000000    0.00000000   -0.05331048

     Total force =     0.075392     Total SCF correction =     0.000022


     Computing stress (Cartesian axis) and pressure


     negative rho (up, down):  4.516E-04 0.000E+00
          total   stress  (Ry/bohr**3)                   (kbar)     P=       -0.84
  -0.00000010   0.00000000   0.00000000           -0.02        0.00        0.00
   0.00000000  -0.00000010   0.00000000            0.00       -0.02        0.00
   0.00000000   0.00000000  -0.00001684            0.00        0.00       -2.48


     Writing all to output data dir ./tmp/vibN.save/ :
     XML data file
     init_run     :      2.81s CPU      2.97s WALL (       1 calls)
     electrons    :     30.85s CPU     33.25s WALL (       1 calls)
     forces       :      1.45s CPU      1.60s WALL (       1 calls)
     stress       :      2.79s CPU      3.09s WALL (       1 calls)

     Called by init_run:
     wfcinit      :      0.16s CPU      0.16s WALL (       1 calls)
     potinit      :      0.78s CPU      0.86s WALL (       1 calls)
     hinit0       :      0.15s CPU      0.17s WALL (       1 calls)

     Called by electrons:
     c_bands      :      8.30s CPU      8.49s WALL (      11 calls)
     sum_band     :      8.22s CPU      9.12s WALL (      11 calls)
     v_of_rho     :      7.59s CPU      8.27s WALL (      12 calls)
     newd         :      4.61s CPU      5.22s WALL (      12 calls)
     PAW_pot      :      0.15s CPU      0.16s WALL (      12 calls)
     mix_rho      :      1.99s CPU      2.06s WALL (      11 calls)

     Called by c_bands:
     init_us_2    :      0.11s CPU      0.11s WALL (      24 calls)
     cegterg      :      8.23s CPU      8.41s WALL (      11 calls)

     Called by *egterg:
     cdiaghg      :      0.01s CPU      0.01s WALL (     145 calls)
     h_psi        :      6.42s CPU      6.60s WALL (     146 calls)
     s_psi        :      0.30s CPU      0.30s WALL (     146 calls)
     g_psi        :      0.02s CPU      0.02s WALL (     134 calls)

     Called by h_psi:
     h_psi:calbec :      0.36s CPU      0.37s WALL (     146 calls)
     vloc_psi     :      5.72s CPU      5.88s WALL (     146 calls)
     add_vuspsi   :      0.28s CPU      0.29s WALL (     146 calls)

     General routines
     calbec       :      0.53s CPU      0.55s WALL (     174 calls)
     fft          :      8.33s CPU      9.03s WALL (     179 calls)
     ffts         :      0.27s CPU      0.28s WALL (      23 calls)
     fftw         :      3.45s CPU      3.56s WALL (     949 calls)
     interpolate  :      0.80s CPU      0.86s WALL (      12 calls)

     Parallel routines

     PWSCF        :     37.94s CPU     40.98s WALL


   This run was terminated on:  15:35:32  25Sep2026            

=------------------------------------------------------------------------------=
   JOB DONE.
=------------------------------------------------------------------------------=
